54317
38, 32, 41, 13, 37, 7, 20, 50, 24, 35, 5, 51, 40, 43, 3, 6, 28, 49, 55, 26, 54, 53, 34, 47, 30, 4, 18, 12, 9, 14, 2, 11, 45, 42, 33, 1, 27, 31, 25, 52, 15, 36, 46, 39, 16, 10, 22, 29, 21, 23, 17, 48, 19, 44, 8
